20
5
979957
0
0
23 5 12 6 14
1
0
34 10 29 18 24
2
0
36 8 23 23 21
3
0
34 10 18 25 18
4
0
29 12 12 12 24
5
0
38 7 15 14 20
6
0
30 8 19 25 14
7
0
16 16 10 11 24
8
0
39 4 20 18 18
9
0
31 6 13 20 23
10
0
43 12 16 25 19
11
0
27 9 22 25 26
12
0
25 5 16 16 23
13
0
38 11 14 17 37
14
0
37 11 15 25 21
15
0
33 6 20 23 26
16
0
18 10 15 21 19
17
0
37 6 20 10 19
18
0
31 12 21 24 18
19
0
27 8 16 15 13
